Optimal - objective value 20.00000000
      0 y_0_1                    0                       5
      1 y_1_2                    0                       5
      2 y_0_2                    1                      20
      3 f_0_0_1_0                0                       0
      4 f_0_0_2_0                5                       0
      5 f_0_1_2_1                0                       0
      6 f_0_0_2_1                0                       0
